networks/zoo_123_2196/zoo_123_2196-lower.txt
Number of groups: 54
Flow 1: {1 4 0} {4 2 0} {2 64 0} 
Flow 2: {1 3 0} {3 65 0} 
Flow 3: {4 66 0} 
Flow 4: {3 6 0} {6 68 0} 
Flow 5: {1 11 0} {11 48 0} {48 47 0} {51 12 0} {12 8 0} {8 70 0} 
Flow 5: {47 44 0} {44 49 0} {49 50 0} {50 51 0} Flow 6: {51 15 0} {15 9 0} {9 71 0} 
Flow 7: {11 73 0} 
Flow 8: {12 13 0} {13 75 0} 
Flow 9: {11 14 0} {14 41 0} {41 42 0} {42 16 0} {16 17 0} {17 79 0} 
Flow 10: {1 21 0} {21 20 0} {20 82 0} 
Flow 11: {20 5 0} {5 10 0} {10 25 0} {25 24 0} {24 86 0} 
Flow 12: {13 27 0} {27 89 0} 
Flow 13: {8 28 0} {28 90 0} 
Flow 14: {47 46 0} {46 45 0} {45 29 0} {29 91 0} 
Flow 15: {42 30 0} {30 92 0} 
Flow 16: {20 22 0} {22 32 0} {32 94 0} 
Flow 17: {27 33 0} {33 95 0} 
Flow 18: {17 36 0} {36 35 0} {35 97 0} 
Flow 19: {17 37 0} {37 99 0} 
Flow 20: {42 39 0} {39 40 0} {40 102 0} 
Flow 21: {41 103 0} 
Flow 22: {42 104 0} 
Flow 23: {45 107 0} 
Flow 24: {46 108 0} 
Flow 25: {47 109 0} 
Flow 26: {50 112 0} 
Flow 27: {45 52 0} {52 114 0} 
Flow 28: {3 54 0} {54 53 0} {53 115 0} 
Flow 29: {49 59 0} {59 58 0} {58 57 0} {57 56 0} {56 118 0} 
Flow 30: {59 121 0} 
Flow 31: {61 34 0} {34 60 0} {60 122 0} 
Flow 31: {53 61 0} Flow 32: {2 6 0} {6 3 0} Flow 33: {2 4 0} Flow 35: {4 1 0} Flow 40: {1 19 0} {19 18 0} {18 80 0} 
Flow 60: {54 116 0} 
Flow 64: {5 20 0} {20 21 0} {21 1 0} Flow 68: {25 32 0} {32 30 0} {30 29 0} {29 45 0} {52 51 0} Flow 71: {12 74 0} 
Flow 73: {30 42 0} Flow 75: {19 81 0} 
Flow 82: {28 31 0} {31 93 0} 
Flow 85: {34 96 0} 
Flow 89: {42 41 0} Flow 92: {45 46 0} Flow 94: {48 110 0} 
Flow 95: {45 49 0} Flow 100: {58 120 0} 
Flow 102: {59 60 0} Flow 103: {6 2 0} Flow 106: {3 1 0} Flow 107: {58 26 0} {26 9 0} {60 59 0} Flow 111: {16 78 0} 
Flow 117: {25 87 0} 
Flow 118: {26 88 0} 
Flow 125: {56 55 0} {55 33 0} Flow 129: {39 101 0} 
Flow 133: {44 106 0} 
Flow 142: {55 117 0} 
Flow 147: {61 123 0} 
Flow 148: {7 6 0} Flow 187: {8 12 0} {12 51 0} {51 50 0} {47 18 0} {18 19 0} {19 1 0} {50 49 0} {49 44 0} {44 47 0} Flow 188: {8 56 0} {56 57 0} {57 58 0} {58 59 0} {60 34 0} {34 61 0} {61 53 0} {53 54 0} {54 3 0} Flow 191: {8 9 0} Flow 192: {47 48 0} {48 11 0} Flow 194: {28 13 0} Flow 195: {29 30 0} {51 52 0} {52 45 0} Flow 199: {32 22 0} {22 20 0} {30 32 0} Flow 200: {21 83 0} 
Flow 201: {32 23 0} {23 24 0} Flow 202: {32 25 0} Flow 203: {9 26 0} Flow 218: {44 43 0} {43 105 0} 
Flow 234: {26 58 0} {59 49 0} Flow 238: {9 8 0} Flow 241: {9 15 0} {15 51 0} Flow 262: {10 5 0} Flow 300: {5 67 0} 
Flow 304: {25 10 0} {10 72 0} 
Flow 313: {23 85 0} 
Flow 324: {43 34 0} Flow 337: {49 111 0} 
Flow 339: {51 113 0} 
Flow 349: {13 12 0} Flow 367: {13 28 0} Flow 390: {33 55 0} Flow 396: {14 11 0} {11 1 0} Flow 469: {16 42 0} {41 14 0} Flow 479: {46 47 0} Flow 494: {37 40 0} Flow 512: {17 16 0} Flow 543: {18 47 0} Flow 682: {23 32 0} Flow 725: {24 23 0} Flow 753: {27 13 0} Flow 773: {33 31 0} Flow 794: {55 56 0} Flow 799: {28 8 0} Flow 821: {31 33 0} Flow 893: {31 28 0} Flow 909: {33 27 0} Flow 1011: {36 98 0} 
Flow 1041: {34 43 0} {43 44 0} Flow 1044: {49 45 0} Flow 1082: {35 36 0} {36 17 0} Flow 1107: {35 38 0} {38 37 0} Flow 1108: {40 39 0} Flow 1161: {37 17 0} Flow 1190: {37 38 0} {38 35 0} Flow 1256: {39 42 0} Flow 1263: {40 37 0} Flow 1899: {56 8 0} Time taken running everything: 0 seconds
