networks/zoo_123_2196/zoo_123_2196-lower.sol
<?xml version = "1.0" encoding="UTF-8" standalone="yes"?>
<CPLEXSolution version="1.2">
 <header
   problemName="networks/zoo_123_2196/zoo_123_2196-lower.lp"
   solutionName="incumbent"
   solutionIndex="-1"
   objectiveValue="54"
   solutionTypeValue="3"
   solutionTypeString="primal"
   solutionStatusValue="101"
   solutionStatusString="integer optimal solution"
   solutionMethodString="mip"
   primalFeasible="1"
   dualFeasible="1"
   MIPNodes="0"
   MIPIterations="0"
   writeLevel="3"/>
 <quality
   epInt="1.0000000000000001e-05"
   epRHS="9.9999999999999995e-07"
   maxIntInfeas="0"
   maxPrimalInfeas="0"
   maxX="1"
   maxSlack="1"/>
 <variables>
  <variable name="Y(1,2)" index="1" value="1"/>
  <variable name="Y(2,3)" index="117" value="1"/>
  <variable name="Y(3,4)" index="233" value="1"/>
  <variable name="Y(4,6)" index="350" value="1"/>
  <variable name="Y(5,8)" index="467" value="1"/>
  <variable name="Y(6,9)" index="583" value="1"/>
  <variable name="Y(7,11)" index="700" value="1"/>
  <variable name="Y(8,13)" index="817" value="1"/>
  <variable name="Y(9,17)" index="936" value="1"/>
  <variable name="Y(10,20)" index="1054" value="1"/>
  <variable name="Y(11,24)" index="1173" value="1"/>
  <variable name="Y(12,27)" index="1291" value="1"/>
  <variable name="Y(13,28)" index="1407" value="1"/>
  <variable name="Y(14,29)" index="1523" value="1"/>
  <variable name="Y(15,30)" index="1639" value="1"/>
  <variable name="Y(16,32)" index="1756" value="1"/>
  <variable name="Y(17,33)" index="1872" value="1"/>
  <variable name="Y(18,35)" index="1989" value="1"/>
  <variable name="Y(19,37)" index="2106" value="1"/>
  <variable name="Y(20,40)" index="2224" value="1"/>
  <variable name="Y(21,41)" index="2340" value="1"/>
  <variable name="Y(22,42)" index="2456" value="1"/>
  <variable name="Y(23,45)" index="2574" value="1"/>
  <variable name="Y(24,46)" index="2690" value="1"/>
  <variable name="Y(25,47)" index="2806" value="1"/>
  <variable name="Y(26,50)" index="2924" value="1"/>
  <variable name="Y(27,52)" index="3041" value="1"/>
  <variable name="Y(28,53)" index="3157" value="1"/>
  <variable name="Y(29,56)" index="3275" value="1"/>
  <variable name="Y(30,59)" index="3393" value="1"/>
  <variable name="Y(31,60)" index="3509" value="1"/>
  <variable name="Y(40,18)" index="4502" value="1"/>
  <variable name="Y(60,54)" index="6838" value="1"/>
  <variable name="Y(71,12)" index="8061" value="1"/>
  <variable name="Y(75,19)" index="8528" value="1"/>
  <variable name="Y(82,31)" index="9345" value="1"/>
  <variable name="Y(85,34)" index="9693" value="1"/>
  <variable name="Y(94,48)" index="10742" value="1"/>
  <variable name="Y(100,58)" index="11442" value="1"/>
  <variable name="Y(111,16)" index="12665" value="1"/>
  <variable name="Y(117,25)" index="13364" value="1"/>
  <variable name="Y(118,26)" index="13480" value="1"/>
  <variable name="Y(129,39)" index="14758" value="1"/>
  <variable name="Y(133,44)" index="15223" value="1"/>
  <variable name="Y(142,55)" index="16269" value="1"/>
  <variable name="Y(147,61)" index="16850" value="1"/>
  <variable name="Y(200,21)" index="22905" value="1"/>
  <variable name="Y(218,43)" index="24997" value="1"/>
  <variable name="Y(300,5)" index="34389" value="1"/>
  <variable name="Y(304,10)" index="34854" value="1"/>
  <variable name="Y(313,23)" index="35902" value="1"/>
  <variable name="Y(337,49)" index="38688" value="1"/>
  <variable name="Y(339,51)" index="38920" value="1"/>
  <variable name="Y(1011,36)" index="116185" value="1"/>
  <variable name="X(1,3,2)" index="252541" value="1"/>
  <variable name="X(1,4,1)" index="254736" value="1"/>
  <variable name="X(1,11,5)" index="256936" value="1"/>
  <variable name="X(1,19,40)" index="259167" value="1"/>
  <variable name="X(1,21,10)" index="261333" value="1"/>
  <variable name="X(2,4,33)" index="263552" value="1"/>
  <variable name="X(2,6,32)" index="265747" value="1"/>
  <variable name="X(2,64,1)" index="267912" value="1"/>
  <variable name="X(3,1,106)" index="270213" value="1"/>
  <variable name="X(3,6,4)" index="272307" value="1"/>
  <variable name="X(3,54,28)" index="274527" value="1"/>
  <variable name="X(3,65,2)" index="276697" value="1"/>
  <variable name="X(4,1,35)" index="278926" value="1"/>
  <variable name="X(4,2,1)" index="281088" value="1"/>
  <variable name="X(4,66,3)" index="283286" value="1"/>
  <variable name="X(5,10,11)" index="285490" value="1"/>
  <variable name="X(5,20,64)" index="287739" value="1"/>
  <variable name="X(5,67,300)" index="290171" value="1"/>
  <variable name="X(6,2,103)" index="292170" value="1"/>
  <variable name="X(6,3,32)" index="294295" value="1"/>
  <variable name="X(6,68,4)" index="296463" value="1"/>
  <variable name="X(7,6,148)" index="298803" value="1"/>
  <variable name="X(8,9,191)" index="301042" value="1"/>
  <variable name="X(8,12,187)" index="303234" value="1"/>
  <variable name="X(8,28,13)" index="305256" value="1"/>
  <variable name="X(8,56,188)" index="307627" value="1"/>
  <variable name="X(8,70,5)" index="309640" value="1"/>
  <variable name="X(9,8,238)" index="312069" value="1"/>
  <variable name="X(9,15,241)" index="314268" value="1"/>
  <variable name="X(9,26,203)" index="316426" value="1"/>
  <variable name="X(9,71,6)" index="318425" value="1"/>
  <variable name="X(10,5,262)" index="320877" value="1"/>
  <variable name="X(10,25,11)" index="322822" value="1"/>
  <variable name="X(10,72,304)" index="325311" value="1"/>
  <variable name="X(11,1,396)" index="327599" value="1"/>
  <variable name="X(11,14,9)" index="329408" value="1"/>
  <variable name="X(11,48,5)" index="331600" value="1"/>
  <variable name="X(11,73,7)" index="333798" value="1"/>
  <variable name="X(12,8,5)" index="335992" value="1"/>
  <variable name="X(12,13,8)" index="338191" value="1"/>
  <variable name="X(12,51,187)" index="340566" value="1"/>
  <variable name="X(12,74,71)" index="342646" value="1"/>
  <variable name="X(13,12,349)" index="345120" value="1"/>
  <variable name="X(13,27,12)" index="346979" value="1"/>
  <variable name="X(13,28,367)" index="349530" value="1"/>
  <variable name="X(13,75,8)" index="351367" value="1"/>
  <variable name="X(14,11,396)" index="353951" value="1"/>
  <variable name="X(14,41,9)" index="355760" value="1"/>
  <variable name="X(15,9,6)" index="357953" value="1"/>
  <variable name="X(15,51,241)" index="360384" value="1"/>
  <variable name="X(16,17,9)" index="362348" value="1"/>
  <variable name="X(16,42,469)" index="365004" value="1"/>
  <variable name="X(16,78,111)" index="366842" value="1"/>
  <variable name="X(17,16,512)" index="369439" value="1"/>
  <variable name="X(17,36,18)" index="371141" value="1"/>
  <variable name="X(17,37,19)" index="373338" value="1"/>
  <variable name="X(17,79,9)" index="375524" value="1"/>
  <variable name="X(18,19,187)" index="377898" value="1"/>
  <variable name="X(18,47,543)" index="380450" value="1"/>
  <variable name="X(18,80,40)" index="382143" value="1"/>
  <variable name="X(19,1,187)" index="384486" value="1"/>
  <variable name="X(19,18,40)" index="386535" value="1"/>
  <variable name="X(19,81,75)" index="388766" value="1"/>
  <variable name="X(20,5,11)" index="390898" value="1"/>
  <variable name="X(20,21,64)" index="393147" value="1"/>
  <variable name="X(20,22,16)" index="395295" value="1"/>
  <variable name="X(20,82,10)" index="397485" value="1"/>
  <variable name="X(21,1,64)" index="399735" value="1"/>
  <variable name="X(21,20,10)" index="401877" value="1"/>
  <variable name="X(21,83,200)" index="404263" value="1"/>
  <variable name="X(22,20,199)" index="406458" value="1"/>
  <variable name="X(22,32,16)" index="408471" value="1"/>
  <variable name="X(23,24,201)" index="410852" value="1"/>
  <variable name="X(23,32,682)" index="413529" value="1"/>
  <variable name="X(23,85,313)" index="415356" value="1"/>
  <variable name="X(24,23,725)" index="417964" value="1"/>
  <variable name="X(24,86,11)" index="419446" value="1"/>
  <variable name="X(25,10,304)" index="421935" value="1"/>
  <variable name="X(25,24,11)" index="423838" value="1"/>
  <variable name="X(25,32,68)" index="426091" value="1"/>
  <variable name="X(25,87,117)" index="428336" value="1"/>
  <variable name="X(26,9,107)" index="430522" value="1"/>
  <variable name="X(26,58,234)" index="432845" value="1"/>
  <variable name="X(26,88,118)" index="434925" value="1"/>
  <variable name="X(27,13,753)" index="437756" value="1"/>
  <variable name="X(27,33,17)" index="439216" value="1"/>
  <variable name="X(27,89,12)" index="441407" value="1"/>
  <variable name="X(28,8,799)" index="444390" value="1"/>
  <variable name="X(28,13,194)" index="445981" value="1"/>
  <variable name="X(28,31,82)" index="448065" value="1"/>
  <variable name="X(28,90,13)" index="450192" value="1"/>
  <variable name="X(29,30,195)" index="452570" value="1"/>
  <variable name="X(29,45,68)" index="454639" value="1"/>
  <variable name="X(29,91,14)" index="456781" value="1"/>
  <variable name="X(30,29,68)" index="459031" value="1"/>
  <variable name="X(30,32,199)" index="461358" value="1"/>
  <variable name="X(30,42,73)" index="463428" value="1"/>
  <variable name="X(30,92,15)" index="465566" value="1"/>
  <variable name="X(31,28,893)" index="468640" value="1"/>
  <variable name="X(31,33,821)" index="470764" value="1"/>
  <variable name="X(31,93,82)" index="472221" value="1"/>
  <variable name="X(32,22,199)" index="474534" value="1"/>
  <variable name="X(32,23,201)" index="476732" value="1"/>
  <variable name="X(32,25,202)" index="478929" value="1"/>
  <variable name="X(32,30,68)" index="480991" value="1"/>
  <variable name="X(32,94,16)" index="483135" value="1"/>
  <variable name="X(33,27,909)" index="486224" value="1"/>
  <variable name="X(33,31,773)" index="488284" value="1"/>
  <variable name="X(33,55,390)" index="490097" value="1"/>
  <variable name="X(33,95,17)" index="491920" value="1"/>
  <variable name="X(34,43,1041)" index="495140" value="1"/>
  <variable name="X(34,60,31)" index="496326" value="1"/>
  <variable name="X(34,61,188)" index="498679" value="1"/>
  <variable name="X(34,96,85)" index="500772" value="1"/>
  <variable name="X(35,36,1082)" index="503965" value="1"/>
  <variable name="X(35,38,1107)" index="506186" value="1"/>
  <variable name="X(35,97,18)" index="507293" value="1"/>
  <variable name="X(36,17,1082)" index="510553" value="1"/>
  <variable name="X(36,35,18)" index="511685" value="1"/>
  <variable name="X(36,98,1011)" index="514874" value="1"/>
  <variable name="X(37,17,1161)" index="517220" value="1"/>
  <variable name="X(37,38,1190)" index="519445" value="1"/>
  <variable name="X(37,40,494)" index="520945" value="1"/>
  <variable name="X(37,99,19)" index="522666" value="1"/>
  <variable name="X(38,35,1190)" index="526033" value="1"/>
  <variable name="X(38,37,1107)" index="528146" value="1"/>
  <variable name="X(39,40,20)" index="529255" value="1"/>
  <variable name="X(39,42,1256)" index="532687" value="1"/>
  <variable name="X(39,101,129)" index="533756" value="1"/>
  <variable name="X(40,37,1263)" index="537086" value="1"/>
  <variable name="X(40,39,1108)" index="539127" value="1"/>
  <variable name="X(40,102,20)" index="540235" value="1"/>
  <variable name="X(41,14,469)" index="542880" value="1"/>
  <variable name="X(41,42,9)" index="544616" value="1"/>
  <variable name="X(41,103,21)" index="546824" value="1"/>
  <variable name="X(42,16,9)" index="549008" value="1"/>
  <variable name="X(42,30,15)" index="551210" value="1"/>
  <variable name="X(42,39,20)" index="553411" value="1"/>
  <variable name="X(42,41,89)" index="555676" value="1"/>
  <variable name="X(42,104,22)" index="557805" value="1"/>
  <variable name="X(43,34,324)" index="560303" value="1"/>
  <variable name="X(43,44,1041)" index="563216" value="1"/>
  <variable name="X(43,105,218)" index="564589" value="1"/>
  <variable name="X(44,43,218)" index="566785" value="1"/>
  <variable name="X(44,47,187)" index="568950" value="1"/>
  <variable name="X(44,49,5)" index="570964" value="1"/>
  <variable name="X(44,106,133)" index="573288" value="1"/>
  <variable name="X(45,29,14)" index="575365" value="1"/>
  <variable name="X(45,46,92)" index="577639" value="1"/>
  <variable name="X(45,49,95)" index="579838" value="1"/>
  <variable name="X(45,52,27)" index="581966" value="1"/>
  <variable name="X(45,107,23)" index="584158" value="1"/>
  <variable name="X(46,45,14)" index="586345" value="1"/>
  <variable name="X(46,47,479)" index="589006" value="1"/>
  <variable name="X(46,108,24)" index="590747" value="1"/>
  <variable name="X(47,18,187)" index="593106" value="1"/>
  <variable name="X(47,44,5)" index="595120" value="1"/>
  <variable name="X(47,46,14)" index="597325" value="1"/>
  <variable name="X(47,48,192)" index="599699" value="1"/>
  <variable name="X(47,109,25)" index="601728" value="1"/>
  <variable name="X(48,11,192)" index="604091" value="1"/>
  <variable name="X(48,47,5)" index="606100" value="1"/>
  <variable name="X(48,110,94)" index="608385" value="1"/>
  <variable name="X(49,44,187)" index="610674" value="1"/>
  <variable name="X(49,45,1044)" index="613727" value="1"/>
  <variable name="X(49,50,5)" index="614884" value="1"/>
  <variable name="X(49,59,29)" index="617104" value="1"/>
  <variable name="X(49,111,337)" index="619608" value="1"/>
  <variable name="X(50,49,187)" index="621654" value="1"/>
  <variable name="X(50,51,5)" index="623668" value="1"/>
  <variable name="X(50,112,26)" index="625885" value="1"/>
  <variable name="X(51,12,5)" index="628060" value="1"/>
  <variable name="X(51,15,6)" index="630257" value="1"/>
  <variable name="X(51,50,187)" index="632634" value="1"/>
  <variable name="X(51,52,195)" index="634838" value="1"/>
  <variable name="X(51,113,339)" index="637178" value="1"/>
  <variable name="X(52,45,195)" index="639230" value="1"/>
  <variable name="X(52,51,68)" index="641299" value="1"/>
  <variable name="X(52,114,27)" index="643454" value="1"/>
  <variable name="X(53,54,188)" index="645811" value="1"/>
  <variable name="X(53,61,31)" index="647850" value="1"/>
  <variable name="X(53,115,28)" index="650043" value="1"/>
  <variable name="X(54,3,188)" index="652399" value="1"/>
  <variable name="X(54,53,28)" index="654435" value="1"/>
  <variable name="X(54,116,60)" index="656663" value="1"/>
  <variable name="X(55,33,125)" index="658924" value="1"/>
  <variable name="X(55,56,794)" index="661789" value="1"/>
  <variable name="X(55,117,142)" index="663333" value="1"/>
  <variable name="X(56,8,1899)" index="667286" value="1"/>
  <variable name="X(56,55,125)" index="667708" value="1"/>
  <variable name="X(56,57,188)" index="669967" value="1"/>
  <variable name="X(56,118,29)" index="672004" value="1"/>
  <variable name="X(57,56,29)" index="674200" value="1"/>
  <variable name="X(57,58,188)" index="676555" value="1"/>
  <variable name="X(58,26,107)" index="678670" value="1"/>
  <variable name="X(58,57,29)" index="680788" value="1"/>
  <variable name="X(58,59,188)" index="683143" value="1"/>
  <variable name="X(58,120,100)" index="685251" value="1"/>
  <variable name="X(59,49,234)" index="687581" value="1"/>
  <variable name="X(59,58,29)" index="689572" value="1"/>
  <variable name="X(59,60,102)" index="691841" value="1"/>
  <variable name="X(59,121,30)" index="693965" value="1"/>
  <variable name="X(60,34,188)" index="696319" value="1"/>
  <variable name="X(60,59,107)" index="698434" value="1"/>
  <variable name="X(60,122,31)" index="700554" value="1"/>
  <variable name="X(61,34,31)" index="702750" value="1"/>
  <variable name="X(61,53,188)" index="705103" value="1"/>
  <variable name="X(61,123,147)" index="707258" value="1"/>
 </variables>
</CPLEXSolution>
